100
128
24
57
55
49
57
15
1
39
51
25
4
29
24
36
64
34
5
3
25
38
6
26
57
12
41
31
2
49
12
39
9
13
49
15
15
46
22
45
60
14
23
12
7
37
12
34
45
25
14
41
35
21
1
47
38
24
1
35
60
11
2
30
38
37
24
4
31
1
46
19
21
30
2
37
26
26
63
45
33
6
21
6
20
5
2
53
30
59
3
39
21
28
3
24
49
64
23
20
3
64